p cnf 7230 17
-2350 -3020 3541 0
3020 -3541 0
-2358 -3116 -3546 0
-3026 -3254 -3544 0
-2352 -3022 -3542 0
2358 -3547 0
3026 -3545 0
2352 -3543 0
3546 3547 0
3544 3545 0
3542 3543 0
3116 -3547 0
3254 -3545 0
3022 -3543 0
2364 -3549 0
3540 3541 0
-3540 -3541 0
